letting n =  10
letting blocks =  [[1, 1], [1, 5], [1, 7], [2, 6], [2, 7], [2, 10], [3, 1], [3, 5], [4, 1], [4, 3], [4, 4], [4, 7], [4, 9], [4, 10], [5, 4], [5, 5], [5, 8], [6, 3], [6, 5], [7, 1], [7, 2], [7, 10], [8, 1], [8, 10], [9, 2], [9, 3], [9, 6], [9, 7], [9, 9], [10, 1], [10, 3], [10, 6], [10, 8], [10, 10]]
